NAME : kro150.41872.tour
COMMENT : Cost = 8416_41872
COMMENT : Found by LKH [Keld Helsgaun] Thu Nov 16 20:48:28 2017
TYPE : TOUR
DIMENSION : 154
TOUR_SECTION
1
28
130
79
132
113
10
24
90
6
49
75
19
53
124
70
94
134
137
18
16
38
111
99
36
127
21
72
32
47
131
151
149
115
43
146
71
17
52
27
62
136
105
29
125
106
22
81
78
121
87
57
100
41
83
128
123
46
34
117
154
61
25
145
68
85
50
116
82
126
95
13
33
76
65
56
67
101
103
5
37
147
39
96
30
48
14
112
107
55
135
140
51
152
77
45
98
15
141
59
104
88
102
26
84
74
63
11
114
109
91
86
60
7
120
12
9
35
23
150
20
110
153
108
3
69
73
44
2
144
64
54
40
93
148
138
133
89
31
143
119
118
129
66
4
97
139
122
42
8
92
80
142
58
-1
EOF
